5 5
2 43 0 11 1 84 3 19 4 65
0 95 1 2 4 49 2 69 3 34
2 4 0 91 1 39 3 49 4 3
4 26 3 41 1 65 0 16 2 58
3 35 4 83 0 16 2 33 1 31
-1
0 2 3 4 5
0 4 5
0 1 2 4 5
0 1 3 4 5
0 2 3 5
-2
56 201 207 230
316 263
5 136 223 296
27 140 165 327
126 152 254

337 12
5 1 11 18 22
6 17 2 12 24
10 0 8 19 23
16 20 9 3 13
15 7 21 4 14
